c uprop, v00.0, 
c reading from data/prog643.c.cnf
c done reading: 0.002688
p cnf 106 426
-59 -63 0
59 63 0
-65 -68 0
65 68 0
-61 -72 0
61 72 0
-49 -74 0
49 74 0
-59 75 0
59 -75 0
-65 76 0
65 -76 0
-72 77 0
72 -77 0
-49 -59 69 0
49 59 -69 0
49 -69 0
59 -69 0
49 -69 -78 0
59 -69 -78 0
-69 -78 0
-49 69 78 0
-59 69 78 0
49 59 -78 0
-55 65 0
-55 69 0
55 -65 -69 0
-54 -65 -69 0
-54 65 69 0
54 -65 69 0
54 65 -69 0
-53 72 0
-53 55 0
53 -55 -72 0
-52 -55 -72 0
-52 55 72 0
52 55 -72 0
52 -55 72 0
49 -51 0
-51 53 0
-49 51 -53 0
-49 -50 -53 0
49 -50 53 0
-49 50 53 0
49 50 -53 0
-57 75 0
57 -75 0
-60 -75 0
60 75 0
-57 66 -76 0
-66 76 0
57 -66 76 0
57 -66 0
-66 -73 76 0
-66 -73 0
57 -66 -73 0
66 73 -76 0
-57 66 73 0
57 -73 76 0
47 -66 -77 0
-47 77 0
-47 66 77 0
-47 66 0
-46 -47 77 0
-46 -47 0
-46 -47 66 0
46 47 -77 0
46 47 -66 0
-46 66 77 0
-47 62 -78 0
-62 78 0
47 -62 78 0
47 -62 0
-45 -62 78 0
-45 -62 0
-45 47 -62 0
45 62 -78 0
45 -47 62 0
-45 47 78 0
-54 -59 67 0
-54 -62 67 0
-59 -62 67 0
54 59 -67 0
54 62 -67 0
59 62 -67 0
-44 54 -67 0
-44 59 -67 0
-44 62 -67 0
44 -54 67 0
44 -59 67 0
44 -62 67 0
44 -54 -59 -62 0
-44 54 59 62 0
-52 -65 79 0
-52 -67 79 0
-65 -67 79 0
52 65 -79 0
52 67 -79 0
65 67 -79 0
52 -79 -80 0
65 -79 -80 0
67 -79 -80 0
-52 79 80 0
-65 79 80 0
-67 79 80 0
-52 -65 -67 80 0
52 65 67 -80 0
-50 -72 81 0
-50 -79 81 0
-72 -79 81 0
50 72 -81 0
50 79 -81 0
72 79 -81 0
50 -81 -82 0
72 -81 -82 0
79 -81 -82 0
-50 81 82 0
-72 81 82 0
-79 81 82 0
-50 -72 -79 82 0
50 72 79 -82 0
-49 -51 83 0
-51 -81 83 0
-49 -81 83 0
49 51 -83 0
51 81 -83 0
49 81 -83 0
51 -83 -84 0
49 -83 -84 0
81 -83 -84 0
-51 83 84 0
-49 83 84 0
-81 83 84 0
-49 -51 -81 84 0
49 51 81 -84 0
73 -85 0
-73 85 0
-73 -86 0
73 86 0
-46 -85 87 0
46 -87 0
46 85 -87 0
85 -87 0
46 -87 -88 0
-87 -88 0
85 -87 -88 0
-46 87 88 0
-85 87 88 0
46 85 -88 0
-45 -87 89 0
45 -89 0
45 87 -89 0
87 -89 0
45 -89 -90 0
-89 -90 0
87 -89 -90 0
-45 89 90 0
-87 89 90 0
45 87 -90 0
-44 -89 91 0
44 -91 0
44 89 -91 0
89 -91 0
44 -91 -92 0
-91 -92 0
89 -91 -92 0
-44 91 92 0
-89 91 92 0
44 89 -92 0
-59 -80 93 0
-80 -91 93 0
-59 -91 93 0
59 80 -93 0
80 91 -93 0
59 91 -93 0
80 -93 -94 0
59 -93 -94 0
91 -93 -94 0
-80 93 94 0
-59 93 94 0
-91 93 94 0
-59 -80 -91 94 0
59 80 91 -94 0
-65 -82 95 0
-82 -93 95 0
-65 -93 95 0
65 82 -95 0
82 93 -95 0
65 93 -95 0
82 -95 -96 0
65 -95 -96 0
93 -95 -96 0
-82 95 96 0
-65 95 96 0
-93 95 96 0
-65 -82 -93 96 0
65 82 93 -96 0
-72 -84 97 0
-84 -95 97 0
-72 -95 97 0
72 84 -97 0
84 95 -97 0
72 95 -97 0
84 -97 -98 0
72 -97 -98 0
95 -97 -98 0
-84 97 98 0
-72 97 98 0
-95 97 98 0
-72 -84 -95 98 0
72 84 95 -98 0
-49 -83 99 0
-83 -97 99 0
-49 -97 99 0
49 83 -99 0
83 97 -99 0
49 97 -99 0
83 -99 -100 0
49 -99 -100 0
97 -99 -100 0
-83 99 100 0
-49 99 100 0
-97 99 100 0
-49 -83 -97 100 0
49 83 97 -100 0
-60 -101 0
60 101 0
-86 -102 0
86 102 0
-88 -103 0
88 103 0
-90 -104 0
90 104 0
-92 -105 0
92 105 0
-94 -106 0
94 106 0
-70 -96 0
70 96 0
-56 -98 0
56 98 0
-43 -100 0
43 100 0
-42 -99 0
42 99 0
-39 -41 0
-38 -39 0
38 39 41 0
-36 38 41 0
-36 -38 -41 0
36 38 -41 0
36 -38 41 0
-35 39 0
-34 -35 0
34 35 -39 0
-32 34 -39 0
-32 -34 39 0
32 34 39 0
32 -34 -39 0
-31 35 0
-30 -31 0
30 31 -35 0
-28 30 -35 0
-28 -30 35 0
28 30 35 0
28 -30 -35 0
-27 31 0
-26 -27 0
26 27 -31 0
-24 26 -31 0
-24 -26 31 0
24 26 31 0
24 -26 -31 0
-23 27 0
-22 -23 0
22 23 -27 0
-20 22 -27 0
-20 -22 27 0
20 22 27 0
20 -22 -27 0
-19 23 0
-18 -19 0
18 19 -23 0
18 -23 -58 0
-18 23 -58 0
18 23 58 0
-18 -23 58 0
19 -64 0
-16 -64 0
16 -19 64 0
16 -19 -71 0
-16 19 -71 0
16 19 71 0
-16 -19 71 0
-41 -48 0
-38 -48 0
38 41 48 0
38 -40 41 0
-38 -40 -41 0
38 40 -41 0
-38 40 41 0
-37 48 0
-34 -37 0
34 37 -48 0
-33 34 -48 0
-33 -34 48 0
33 34 48 0
33 -34 -48 0
-29 37 0
-29 -30 0
29 30 -37 0
-25 30 -37 0
-25 -30 37 0
25 30 37 0
25 -30 -37 0
-21 29 0
-21 -26 0
21 26 -29 0
-17 26 -29 0
-17 -26 29 0
17 26 29 0
17 -26 -29 0
-15 21 0
-15 -22 0
15 -21 22 0
-14 -21 22 0
-14 21 -22 0
14 21 22 0
14 -21 -22 0
-13 15 0
-13 -18 0
13 -15 18 0
-12 -15 18 0
-12 15 -18 0
12 15 18 0
12 -15 -18 0
-11 13 0
-11 -16 0
11 -13 16 0
-10 -13 16 0
-10 13 -16 0
10 13 16 0
10 -13 -16 0
-9 60 0
-9 41 0
9 -41 -60 0
41 -60 0
-41 60 0
8 -38 -86 0
8 -9 -86 0
8 -9 -38 0
-8 38 86 0
-8 9 86 0
-8 9 38 0
8 -86 0
8 -38 0
8 -9 0
-9 -38 -86 0
7 -34 -88 0
7 -8 -88 0
7 -8 -34 0
-7 34 88 0
-7 8 88 0
-7 8 34 0
-7 88 0
-7 34 0
-7 8 0
8 34 88 0
6 -30 -90 0
6 -7 -90 0
6 -7 -30 0
-6 30 90 0
-6 7 90 0
-6 7 30 0
-6 90 0
-6 30 0
-6 7 0
7 30 90 0
5 -26 -92 0
5 -6 -92 0
5 -6 -26 0
-5 26 92 0
-5 6 92 0
-5 6 26 0
5 -92 0
5 -26 0
5 -6 0
-6 -26 -92 0
4 -22 -94 0
4 -5 -94 0
4 -5 -22 0
-4 22 94 0
-4 5 94 0
-4 5 22 0
4 -94 0
4 -22 0
4 -5 0
-5 -22 -94 0
3 -18 -96 0
3 -4 -96 0
3 -4 -18 0
-3 18 96 0
-3 4 96 0
-3 4 18 0
3 -96 0
3 -18 0
3 -4 0
-4 -18 -96 0
2 -16 -98 0
2 -3 -98 0
2 -3 -16 0
-2 16 98 0
-2 3 98 0
-2 3 16 0
2 -98 0
2 -16 0
2 -3 0
-3 -16 -98 0
-1 100 0
-1 2 0
1 -2 -100 0
2 -100 0
-2 100 0
-1 -99 0
1 -99 0
-1 99 0
